c ---- [ banner ] ------------------------------------------------------------
c
c Kissat SAT Solver
c 
c Copyright (c) 2021-2024 Armin Biere University of Freiburg
c Copyright (c) 2019-2021 Armin Biere Johannes Kepler University Linz
c 
c Version 4.0.1 43f02cf3e992cb44653b35e5cb26f93281552ae0
c gcc (Ubuntu 13.2.0-23ubuntu4) 13.2.0 -W -Wall -O3 -DNDEBUG
c Thu Sep 12 12:27:46 CEST 2024 Linux abryzen9 6.8.0-41-generic x86_64
c
c ---- [ parsing ] -----------------------------------------------------------
c
c opened and reading DIMACS file:
c
c   /data/artifact/AMulet2.0_artifact/exp4/cnf_resyn3_64/64_64_U2_WT_RC_Multgen_resyn3.cnf
c
c parsed 'p cnf 27754 126148' header
c closing input after reading 2523040 bytes (2 MB)
c finished parsing after 0.02 seconds
c
c ---- [ options ] -----------------------------------------------------------
c
c --stable=0                       (different from default '1')
c
c ---- [ solving ] -----------------------------------------------------------
c
c  seconds switched rate     size/glue tier1  binary          remaining
c         MB reductions conflicts size  tier2    irredundant
c          level restarts redundant glue  trail          variables
c
c *  0.02 10 0 0 0  0 0   0   0 0.0 0 0 0 0 0% 2865 123281 27751 100%
c (  0.03 12 0 0 0  0 0   0   0 0.0 0 0 0 0 0% 2865 123281 27751 100%
c .  0.04 13 0 0 0  0 0   0   0 0.0 0 0 0 0 0% 2861 123281 27751 100%
c c  0.09 15 0 0 0  0 0   0   0 0.0 0 0 0 0 0% 2958 123280 27750 100%
c d  0.10 15 0 0 0  0 0   0   0 0.0 0 0 0 0 0% 2956 123280 27750 100%
c =  0.15 15 0 0 0  0 0   0   0 0.0 0 0 0 0 0% 3505 123280 27474 99%
c d  0.16 15 0 0 0  0 0   0   0 0.0 0 0 0 0 0% 2953 123280 27474 99%
c f  0.33 16 0 0 0  0 0   0   0 0.0 0 0 0 0 0% 9961 112713 31004 112%
c e  0.58 24 0 0 0  0 0   0   0 0.0 0 0 0 0 0% 2414 123145 21134 76%
c )  0.58 24 0 0 0  0 0   0   0 0.0 0 0 0 0 0% 2414 123145 21134 76%
c {  0.60 24 0 0 0  0 0   0   0 0.0 0 0 2 6 0% 2414 123145 21134 76%
c -  0.96 26 207 0 1 261 44 1000 801 5.5 30 5 2 5 22% 2442 123144 21134 76%
c -  1.26 26 345 0 2 378 45 2001 1511 5.0 27 5 2 7 25% 2489 123125 21134 76%
c d  1.37 26 362 0 2 421 43 2505 1918 4.7 25 5 2 7 24% 2514 123120 21127 76%
c u  1.39 26 362 0 2 421 43 2505 1714 4.7 25 5 2 7 24% 2523 123120 21127 76%
c v  1.42 26 362 0 2 421 43 2505 1353 4.7 25 5 2 7 24% 2523 123120 21127 76%
c w  1.44 26 362 0 2 421 43 2505 1327 4.7 25 5 2 7 24% 2523 123120 21127 76%
c x  1.47 26 362 0 2 421 43 2505 1327 4.7 25 5 2 7 24% 2696 122792 21127 76%
c =  1.54 26 362 0 2 421 43 2505 1327 4.7 25 5 2 7 24% 3112 122792 20919 75%
c d  1.55 26 362 0 2 421 43 2505 1322 4.7 25 5 2 7 24% 2695 122792 20919 75%
c
c  seconds   switched   rate       size/glue tier1    binary          remaining
c         MB  reductions conflicts       size  tier2     irredundant
c           level restarts    redundant    glue   trail          variables
c
c t  1.56 26 362 0 2 421 43 2505 1322 4.7 25 5 2 7 24% 2690 122792 20919 75%
c f  1.59 26 362 0 2 421 43 2505 1322 4.7 25 5 2 7 24% 2711 122750 20930 75%
c c  1.69 24 362 0 2 421 43 2505 1322 4.7 25 5 2 7 24% 2712 122742 20929 75%
c d  1.70 24 362 0 2 421 43 2505 1322 4.7 25 5 2 7 24% 2710 122742 20929 75%
c u  1.72 24 362 0 2 421 43 2505 1289 4.7 25 5 2 7 24% 2711 122742 20929 75%
c v  1.74 24 362 0 2 421 43 2505 1234 4.7 25 5 2 7 24% 2711 122742 20929 75%
c w  1.77 26 362 0 2 421 43 2505 1219 4.7 25 5 2 7 24% 2711 122742 20929 75%
c x  1.80 26 362 0 2 421 43 2505 1219 4.7 25 5 2 7 24% 2712 122367 20929 75%
c =  1.89 26 362 0 2 421 43 2505 1219 4.7 25 5 2 7 24% 2982 122367 20794 75%
c d  1.90 26 362 0 2 421 43 2505 1218 4.7 25 5 2 7 24% 2711 122367 20794 75%
c t  1.91 26 362 0 2 421 43 2505 1218 4.7 25 5 2 7 24% 2709 122367 20794 75%
c f  1.94 26 362 0 2 421 43 2505 1218 4.7 25 5 2 7 24% 2722 122341 20801 75%
c -  2.12 26 354 0 3 503 42 3418 1757 4.1 21 5 2 7 22% 2742 122341 20801 75%
c -  2.49 26 304 0 4 665 39 5151 2937 3.8 20 5 2 6 21% 2776 122339 20801 75%
c -  3.13 26 280 0 5 933 40 7152 4058 3.8 21 6 2 7 22% 2864 122335 20801 75%
c d  3.22 26 291 0 5 959 39 7714 4482 3.7 21 6 2 7 22% 2874 122319 20779 75%
c u  3.26 26 291 0 5 959 39 7714 4019 3.7 21 6 2 7 22% 2879 122319 20779 75%
c v  3.29 26 291 0 5 959 39 7714 3355 3.7 21 6 2 7 22% 2880 122319 20779 75%
c w  3.31 26 291 0 5 959 39 7714 3344 3.7 21 6 2 7 22% 2880 122319 20779 75%
c x  3.35 26 291 0 5 959 39 7714 3344 3.7 21 6 2 7 22% 2880 122239 20779 75%
c
c  seconds   switched   rate       size/glue tier1    binary          remaining
c         MB  reductions conflicts       size  tier2     irredundant
c           level restarts    redundant    glue   trail          variables
c
c =  3.50 26 291 0 5 959 39 7714 3344 3.7 21 6 2 7 22% 2924 122239 20757 75%
c d  3.51 26 291 0 5 959 39 7714 3338 3.7 21 6 2 7 22% 2879 122239 20757 75%
c t  3.53 26 291 0 5 959 39 7714 3338 3.7 21 6 2 7 22% 2869 122239 20757 75%
c f  3.56 26 291 0 5 959 39 7714 3338 3.7 21 6 2 7 22% 2945 122121 20795 75%
c u  3.61 26 291 0 5 959 39 7714 3270 3.7 21 6 2 7 22% 2949 122121 20795 75%
c v  3.63 26 291 0 5 959 39 7714 3168 3.7 21 6 2 7 22% 2949 122121 20795 75%
c w  3.65 26 291 0 5 959 39 7714 3163 3.7 21 6 2 7 22% 2949 122121 20795 75%
c =  3.78 26 291 0 5 959 39 7714 3163 3.7 21 6 2 7 22% 3003 122121 20768 75%
c d  3.79 26 291 0 5 959 39 7714 3158 3.7 21 6 2 7 22% 2944 122121 20768 75%
c t  3.81 26 291 0 5 959 39 7714 3158 3.7 21 6 2 7 22% 2899 122121 20768 75%
c f  3.85 26 291 0 5 959 39 7714 3158 3.7 21 6 2 7 22% 3077 121852 20857 75%
c -  4.33 26 281 0 6 1142 40 9388 4117 3.7 21 6 2 7 23% 3123 121851 20857 75%
c o  4.62 26 280 0 6 1220 40 10155 4817 3.9 22 6 2 7 24% 3142 121843 20857 75%
c -  5.15 26 280 0 7 1379 40 11837 5641 4.0 23 6 2 7 24% 3183 121837 20857 75%
c s  5.46 26 273 0 7 1470 39 12521 6219 3.8 24 6 2 7 24% 3207 118175 20857 75%
c e  5.59 26 273 0 7 1470 39 12521 6219 3.8 24 6 2 7 24% 2745 118557 20440 74%
c s  5.59 26 273 0 7 1470 39 12521 6219 3.8 24 6 2 7 24% 2747 118423 20440 74%
c e  5.60 26 273 0 7 1470 39 12521 6219 3.8 24 6 2 7 24% 2746 118424 20439 74%
c ^  5.60 26 273 0 7 1470 39 12521 6219 3.8 24 6 2 7 24% 2746 118424 20439 74%
c -  6.12 26 267 0 8 1604 38 14482 6965 3.8 24 6 2 7 25% 2788 118417 20439 74%
c
c  seconds   switched    rate        size/glue tier1    binary          remaining
c         MB  reductions   conflicts       size  tier2     irredundant
c           level  restarts     redundant    glue   trail          variables
c
c c  6.57 26 280 0 8 1704 38 15803 8121 3.8 24 6 2 7 25% 2863 118280 20415 74%
c d  6.58 26 280 0 8 1704 38 15803 8102 3.8 24 6 2 7 25% 2811 118280 20413 74%
c u  6.62 26 280 0 8 1704 38 15803 7434 3.8 24 6 2 7 25% 2810 118280 20413 74%
c v  6.68 26 280 0 8 1704 38 15803 6351 3.8 24 6 2 7 25% 2810 118280 20413 74%
c w  6.76 26 280 0 8 1704 38 15803 6325 3.8 24 6 2 7 25% 2810 118280 20413 74%
c x  6.80 26 280 0 8 1704 38 15803 6325 3.8 24 6 2 7 25% 2810 117887 20413 74%
c =  7.04 26 280 0 8 1704 38 15803 6325 3.8 24 6 2 7 25% 4816 117885 19410 70%
c d  7.05 26 280 0 8 1704 38 15803 6212 3.8 24 6 2 7 25% 2764 117885 19410 70%
c t  7.07 26 280 0 8 1704 38 15803 6212 3.8 24 6 2 7 25% 2595 117885 19410 70%
c f  7.13 26 280 0 8 1704 38 15803 6212 3.8 24 6 2 7 25% 2606 117837 19423 70%
c u  7.18 26 280 0 8 1704 38 15803 6017 3.8 24 6 2 7 25% 2609 117837 19423 70%
c v  7.21 26 280 0 8 1704 38 15803 5844 3.8 24 6 2 7 25% 2609 117837 19423 70%
c w  7.30 26 280 0 8 1704 38 15803 5810 3.8 24 6 2 7 25% 2609 117837 19423 70%
c x  7.34 26 280 0 8 1704 38 15803 5810 3.8 24 6 2 7 25% 2708 114741 19423 70%
c =  7.57 26 280 0 8 1704 38 15803 5810 3.8 24 6 2 7 25% 6288 114741 17633 64%
c d  7.58 26 280 0 8 1704 38 15803 5748 3.8 24 6 2 7 25% 2656 114741 17633 64%
c t  7.60 26 280 0 8 1704 38 15803 5748 3.8 24 6 2 7 25% 2562 114741 17633 64%
c f  7.65 26 280 0 8 1704 38 15803 5748 3.8 24 6 2 7 25% 2564 114735 17635 64%
c -  7.98 26 280 0 9 1781 37 17311 6378 3.7 24 6 2 7 25% 2596 114734 17635 64%
c o  8.78 26 277 0 9 2033 36 20157 8957 3.7 24 6 2 7 25% 2640 114732 17635 64%
c
c  seconds   switched     rate        size/glue tier1    binary          remaining
c         MB   reductions   conflicts       size  tier2     irredundant
c           level   restarts     redundant    glue   trail          variables
c
c -  8.84 26 277 0 10 2058 36 20311 8253 3.8 24 6 2 7 25% 2640 114732 17635 64%
c -  9.52 26 276 0 11 2253 34 23473 9866 3.5 25 7 2 7 25% 2729 114723 17635 64%
c s  9.97 26 274 0 11 2362 34 25036 11314 3.6 25 7 2 7 25% 2747 100464 17635 64%
c e 10.08 26 274 0 11 2362 34 25036 11314 3.6 25 7 2 7 25% 2424 100865 17292 62%
c s 10.08 26 274 0 11 2362 34 25036 11314 3.6 25 7 2 7 25% 2461 100206 17292 62%
c e 10.10 26 274 0 11 2362 34 25036 11314 3.6 25 7 2 7 25% 2437 100235 17281 62%
c ^ 10.10 26 274 0 11 2362 34 25036 11314 3.6 25 7 2 7 25% 2437 100235 17281 62%
c - 10.54 26 275 0 12 2513 34 26789 10856 3.6 25 7 2 7 25% 2461 100233 17281 62%
c c 10.62 26 274 0 12 2513 33 26939 10998 3.6 25 7 2 7 25% 2498 100094 17258 62%
c d 10.63 26 274 0 12 2513 33 26939 10981 3.6 25 7 2 7 25% 2452 100094 17258 62%
c u 10.68 26 274 0 12 2513 33 26939 9835 3.6 25 7 2 7 25% 2458 100094 17258 62%
c v 10.74 26 274 0 12 2513 33 26939 8701 3.6 25 7 2 7 25% 2458 100094 17258 62%
c w 10.75 26 274 0 12 2513 33 26939 8700 3.6 25 7 2 7 25% 2458 100094 17258 62%
c x 10.80 26 274 0 12 2513 33 26939 8700 3.6 25 7 2 7 25% 2461 99973 17258 62%
c = 11.06 26 274 0 12 2513 33 26939 8700 3.6 25 7 2 7 25% 5395 99971 15791 57%
c d 11.07 26 274 0 12 2513 33 26939 8569 3.6 25 7 2 7 25% 2358 99971 15791 57%
c t 11.08 26 274 0 12 2513 33 26939 8569 3.6 25 7 2 7 25% 2306 99971 15791 57%
c f 11.15 26 274 0 12 2513 33 26939 8569 3.6 25 7 2 7 25% 2335 99872 15812 57%
c u 11.26 26 274 0 12 2513 33 26939 8327 3.6 25 7 2 7 25% 2336 99872 15812 57%
c v 11.30 26 274 0 12 2513 33 26939 8132 3.6 25 7 2 7 25% 2336 99872 15812 57%
c
c  seconds   switched     rate        size/glue tier1    binary         remaining
c         MB   reductions   conflicts       size  tier2     irredundant
c           level   restarts     redundant    glue   trail         variables
c
c w 11.31 26 274 0 12 2513 33 26939 8130 3.6 25 7 2 7 25% 2336 99872 15812 57%
c = 11.56 26 274 0 12 2513 33 26939 8130 3.6 25 7 2 7 25% 3686 99872 15137 55%
c d 11.57 26 274 0 12 2513 33 26939 8119 3.6 25 7 2 7 25% 2327 99872 15137 55%
c t 11.58 26 274 0 12 2513 33 26939 8119 3.6 25 7 2 7 25% 2210 99872 15137 55%
c f 11.61 26 274 0 12 2513 33 26939 8119 3.6 25 7 2 7 25% 2244 99740 15168 55%
c - 12.01 26 267 0 13 2638 31 30255 10043 3.5 24 7 2 6 24% 2314 99739 15168 55%
c - 12.80 26 262 0 14 2884 31 33861 12140 3.4 24 7 2 6 24% 2369 99736 15168 55%
c - 13.24 26 248 0 15 3038 29 37602 13672 3.3 23 7 2 6 24% 2463 99735 15168 55%
c o 13.67 26 243 0 15 3197 28 40198 15957 3.3 23 7 2 6 23% 2498 99730 15168 55%
c d 13.92 26 245 0 15 3299 28 41265 16767 3.3 23 7 2 6 23% 2444 99728 15136 55%
c u 13.98 26 245 0 15 3299 28 41265 15648 3.3 23 7 2 6 23% 2476 99728 15136 55%
c v 14.02 26 245 0 15 3299 28 41265 15033 3.3 23 7 2 6 23% 2477 99728 15136 55%
c w 14.06 26 245 0 15 3299 28 41265 15033 3.3 23 7 2 6 23% 2477 99728 15136 55%
c x 14.10 26 245 0 15 3299 28 41265 15033 3.3 23 7 2 6 23% 2477 99726 15136 55%
c d 14.30 26 245 0 15 3299 28 41265 14982 3.3 23 7 2 6 23% 2457 99726 15126 55%
c t 14.32 26 245 0 15 3299 28 41265 14982 3.3 23 7 2 6 23% 2444 99726 15126 55%
c f 14.34 26 245 0 15 3299 28 41265 14982 3.3 23 7 2 6 23% 2458 99660 15136 55%
c c 14.41 26 245 0 15 3299 28 41265 14802 3.3 23 7 2 6 23% 2544 99310 15089 54%
c d 14.42 26 245 0 15 3299 28 41265 14802 3.3 23 7 2 6 23% 2450 99310 15089 54%
c u 14.48 26 245 0 15 3299 28 41265 13730 3.3 23 7 2 6 23% 2466 99310 15089 54%
c
c  seconds   switched     rate         size/glue tier1    binary         remaining
c         MB   reductions   conflicts        size  tier2     irredundant
c           level   restarts      redundant    glue   trail         variables
c
c v 14.55 26 245 0 15 3299 28 41265 12724 3.3 23 7 2 6 23% 2471 99310 15089 54%
c w 14.61 26 245 0 15 3299 28 41265 12723 3.3 23 7 2 6 23% 2471 99310 15089 54%
c d 14.62 26 245 0 15 3299 28 41265 12719 3.3 23 7 2 6 23% 2453 99310 15080 54%
c t 14.63 26 245 0 15 3299 28 41265 12719 3.3 23 7 2 6 23% 2443 99310 15080 54%
c f 14.65 26 245 0 15 3299 28 41265 12719 3.3 23 7 2 6 23% 2443 99304 15082 54%
c - 14.66 26 244 0 16 3299 28 41475 11551 3.3 23 7 2 6 23% 2447 99304 15082 54%
c - 15.58 26 233 0 17 3656 28 45477 13519 3.3 23 7 2 6 23% 2543 99303 15082 54%
c - 16.32 26 226 0 18 3912 27 49601 15564 3.3 23 7 2 6 23% 2604 99297 15082 54%
c s 16.69 26 223 0 18 4051 27 52136 17819 3.3 22 7 2 6 22% 2645 86165 15082 54%
c e 16.79 26 223 0 18 4051 27 52136 17819 3.3 22 7 2 6 22% 2209 86819 14845 53%
c s 16.80 26 223 0 18 4051 27 52136 17819 3.3 22 7 2 6 22% 2226 86477 14845 53%
c e 16.80 26 223 0 18 4051 27 52136 17819 3.3 22 7 2 6 22% 2223 86477 14842 53%
c ^ 16.80 26 223 0 18 4051 27 52136 17819 3.3 22 7 2 6 22% 2223 86477 14842 53%
c - 16.92 26 220 0 19 4090 26 53843 16627 3.2 22 7 2 6 22% 2251 86477 14842 53%
c - 17.36 26 223 0 20 4347 25 58204 18378 3.2 22 7 2 6 22% 2362 86470 14842 53%
c c 17.44 26 221 0 20 4375 25 58892 18969 3.2 22 7 2 6 22% 2472 85870 14753 53%
c d 17.44 26 221 0 20 4375 25 58892 18739 3.2 22 7 2 6 22% 2294 85870 14753 53%
c u 17.50 26 221 0 20 4375 25 58892 16485 3.2 22 7 2 6 22% 2337 85870 14753 53%
c v 17.54 26 221 0 20 4375 25 58892 14907 3.2 22 7 2 6 22% 2346 85870 14753 53%
c w 17.55 26 221 0 20 4375 25 58892 14882 3.2 22 7 2 6 22% 2346 85870 14753 53%
c
c  seconds   switched     rate         size/glue tier1    binary         remaining
c         MB   reductions   conflicts        size  tier2     irredundant
c           level   restarts      redundant    glue   trail         variables
c
c d 17.73 26 221 0 20 4375 25 58892 14840 3.2 22 7 2 6 22% 2310 85870 14735 53%
c t 17.74 26 221 0 20 4375 25 58892 14840 3.2 22 7 2 6 22% 2278 85870 14735 53%
c f 17.76 26 221 0 20 4375 25 58892 14840 3.2 22 7 2 6 22% 2278 85833 14742 53%
c c 17.80 26 221 0 20 4375 25 58892 14816 3.2 22 7 2 6 22% 2311 85695 14727 53%
c d 17.80 26 221 0 20 4375 25 58892 14816 3.2 22 7 2 6 22% 2281 85695 14727 53%
c u 17.84 26 221 0 20 4375 25 58892 14388 3.2 22 7 2 6 22% 2288 85695 14727 53%
c v 17.87 26 221 0 20 4375 25 58892 14055 3.2 22 7 2 6 22% 2288 85695 14727 53%
c w 17.89 26 221 0 20 4375 25 58892 14036 3.2 22 7 2 6 22% 2288 85695 14727 53%
c x 17.92 26 221 0 20 4375 25 58892 14032 3.2 22 7 2 6 22% 2307 85515 14727 53%
c d 17.93 26 221 0 20 4375 25 58892 14032 3.2 22 7 2 6 22% 2305 85515 14726 53%
c t 17.94 26 221 0 20 4375 25 58892 14032 3.2 22 7 2 6 22% 2289 85515 14726 53%
c f 17.94 26 221 0 20 4375 25 58892 14032 3.2 22 7 2 6 22% 2292 85507 14727 53%
c - 18.50 26 216 0 21 4747 25 62676 15996 3.3 23 7 2 5 22% 2339 85505 14727 53%
c - 19.27 26 210 0 22 5282 25 67259 18522 3.3 23 7 2 5 23% 2372 85505 14727 53%
c o 19.65 26 207 0 22 5538 25 70199 21052 3.3 23 7 2 5 22% 2411 85505 14727 53%
c - 19.89 26 206 0 23 5712 25 71949 18106 3.3 23 7 1 5 22% 2441 85505 14727 53%
c - 20.19 26 200 0 24 5889 24 76745 18296 3.2 23 7 1 5 22% 2562 85505 14727 53%
c c 20.69 26 196 0 24 6227 24 79956 21137 3.3 23 7 1 5 22% 2708 84510 14571 53%
c d 20.69 26 196 0 24 6227 24 79956 20639 3.3 23 7 1 5 22% 2396 84510 14571 53%
c u 20.73 26 196 0 24 6227 24 79956 19034 3.3 23 7 1 5 22% 2416 84510 14571 53%
c
c  seconds   switched     rate         size/glue tier1    binary         remaining
c         MB   reductions   conflicts        size  tier2     irredundant
c           level   restarts      redundant    glue   trail         variables
c
c v 20.79 26 196 0 24 6227 24 79956 16658 3.3 23 7 1 5 22% 2441 84510 14571 53%
c w 20.94 26 196 0 24 6227 24 79956 16621 3.3 23 7 1 5 22% 2441 84510 14571 53%
c d 20.94 26 196 0 24 6227 24 79956 16608 3.3 23 7 1 5 22% 2417 84510 14559 52%
c t 20.95 26 196 0 24 6227 24 79956 16608 3.3 23 7 1 5 22% 2398 84510 14559 52%
c c 21.00 26 196 0 24 6227 24 79956 16608 3.3 23 7 1 5 22% 2421 84411 14547 52%
c d 21.01 26 196 0 24 6227 24 79956 16571 3.3 23 7 1 5 22% 2397 84411 14547 52%
c u 21.04 26 196 0 24 6227 24 79956 16232 3.3 23 7 1 5 22% 2401 84411 14547 52%
c v 21.08 26 196 0 24 6227 24 79956 15724 3.3 23 7 1 5 22% 2402 84411 14547 52%
c w 21.16 26 196 0 24 6227 24 79956 15562 3.3 23 7 1 5 22% 2402 84411 14547 52%
c x 21.20 26 196 0 24 6227 24 79956 15558 3.3 23 7 1 5 22% 2402 84380 14547 52%
c = 21.45 26 196 0 24 6227 24 79956 15558 3.3 23 7 1 5 22% 2460 84380 14518 52%
c d 21.45 26 196 0 24 6227 24 79956 15547 3.3 23 7 1 5 22% 2397 84380 14518 52%
c t 21.46 26 196 0 24 6227 24 79956 15547 3.3 23 7 1 5 22% 2381 84380 14518 52%
c - 21.60 26 194 0 25 6323 24 81643 14513 3.2 23 7 1 5 22% 2400 84379 14518 52%
c - 22.19 26 191 0 26 6740 24 86643 16539 3.2 23 7 1 5 22% 2452 84377 14518 52%
c - 22.76 26 187 0 27 7178 23 91744 18391 3.2 23 7 1 5 22% 2496 84376 14518 52%
c s 23.41 26 186 0 27 7641 23 95807 22111 3.2 23 7 1 5 22% 2559 84173 14518 52%
c e 23.48 26 186 0 27 7641 23 95807 22111 3.2 23 7 1 5 22% 1498 86543 13998 50%
c 2 23.48 26 186 0 27 7641 23 95807 22111 3.2 23 7 1 5 22% 1497 86543 13998 50%
c s 23.49 26 186 0 27 7641 23 95807 22111 3.2 23 7 1 5 22% 1507 85809 13998 50%
c
c  seconds   switched     rate         size/glue tier1    binary         remaining
c         MB   reductions   conflicts        size  tier2     irredundant
c           level   restarts      redundant    glue   trail         variables
c
c e 23.50 26 186 0 27 7641 23 95807 22111 3.2 23 7 1 5 22% 1483 85854 13988 50%
c ^ 23.50 26 186 0 27 7641 23 95807 22111 3.2 23 7 1 5 22% 1483 85854 13988 50%
c - 23.71 26 186 0 28 7799 24 96940 17916 3.2 23 7 1 5 22% 1490 85853 13988 50%
c - 24.43 26 183 0 29 8293 24 102231 19594 3.2 24 7 1 5 23% 1547 85853 13988 50%
c d 24.60 26 182 0 29 8401 23 104575 21567 3.2 23 7 1 5 22% 1528 85850 13958 50%
c u 24.65 26 182 0 29 8401 23 104575 20101 3.2 23 7 1 5 22% 1540 85850 13958 50%
c v 24.72 26 182 0 29 8401 23 104575 17523 3.2 23 7 1 5 22% 1549 85850 13958 50%
c w 24.80 26 182 0 29 8401 23 104575 17230 3.2 23 7 1 5 22% 1550 85850 13958 50%
c d 24.81 26 182 0 29 8401 23 104575 17227 3.2 23 7 1 5 22% 1540 85850 13953 50%
c t 24.81 26 182 0 29 8401 23 104575 17227 3.2 23 7 1 5 22% 1536 85850 13953 50%
c f 24.84 26 182 0 29 8401 23 104575 17227 3.2 23 7 1 5 22% 1542 85806 13957 50%
c c 24.88 26 182 0 29 8401 23 104575 17176 3.2 23 7 1 5 22% 1608 85540 13926 50%
c d 24.88 26 182 0 29 8401 23 104575 17176 3.2 23 7 1 5 22% 1546 85540 13926 50%
c u 24.92 26 182 0 29 8401 23 104575 16891 3.2 23 7 1 5 22% 1549 85540 13926 50%
c v 24.97 26 182 0 29 8401 23 104575 16383 3.2 23 7 1 5 22% 1552 85540 13926 50%
c w 25.04 26 182 0 29 8401 23 104575 16244 3.2 23 7 1 5 22% 1552 85540 13926 50%
c = 25.17 26 182 0 29 8401 23 104575 16244 3.2 23 7 1 5 22% 1700 85538 13852 50%
c d 25.17 26 182 0 29 8401 23 104575 16199 3.2 23 7 1 5 22% 1528 85538 13850 50%
c t 25.18 26 182 0 29 8401 23 104575 16199 3.2 23 7 1 5 22% 1524 85538 13850 50%
c f 25.19 26 182 0 29 8401 23 104575 16199 3.2 23 7 1 5 22% 1535 85478 13855 50%
c
c  seconds   switched     rate          size/glue tier1    binary         remaining
c         MB   reductions   conflicts         size  tier2     irredundant
c           level   restarts       redundant    glue   trail         variables
c
c - 25.49 26 181 0 30 8618 23 107619 16552 3.2 23 7 1 5 22% 1562 85478 13855 50%
c o 25.81 26 180 0 30 8904 23 110480 19204 3.2 23 7 1 5 23% 1576 85477 13855 50%
c - 26.16 26 180 0 31 9190 23 113096 18886 3.2 23 7 1 5 23% 1592 85477 13855 50%
c - 26.88 26 177 0 32 9737 23 118663 20648 3.2 24 7 1 5 23% 1649 85475 13855 50%
c - 27.65 26 174 0 33 10292 23 124319 22128 3.2 24 7 1 5 24% 1702 85473 13855 50%
c - 28.27 26 171 0 34 10735 23 130064 23422 3.2 24 7 1 5 24% 1789 85472 13855 50%
c c 28.76 26 170 0 34 11068 23 132821 26010 3.2 24 8 1 5 24% 1857 84778 13745 50%
c d 28.77 26 170 0 34 11068 23 132821 25633 3.2 24 8 1 5 24% 1637 84778 13745 50%
c u 28.82 26 170 0 34 11068 23 132821 23690 3.2 24 8 1 5 24% 1655 84778 13745 50%
c v 28.89 26 170 0 34 11068 23 132821 20539 3.2 24 8 1 5 24% 1663 84778 13745 50%
c w 28.99 26 170 0 34 11068 23 132821 20532 3.2 24 8 1 5 24% 1663 84778 13745 50%
c x 29.07 26 170 0 34 11068 23 132821 20528 3.2 24 8 1 5 24% 1719 82979 13745 50%
c = 29.45 26 170 0 34 11068 23 132821 20528 3.2 24 8 1 5 24% 2023 82979 13593 49%
c d 29.46 26 170 0 34 11068 23 132821 20332 3.2 24 8 1 5 24% 1667 82979 13593 49%
c t 29.47 26 170 0 34 11068 23 132821 20332 3.2 24 8 1 5 24% 1616 82979 13593 49%
c f 29.48 26 170 0 34 11068 23 132821 20332 3.2 24 8 1 5 24% 1633 82880 13601 49%
c u 29.56 26 170 0 34 11068 23 132821 19829 3.2 24 8 1 5 24% 1638 82880 13601 49%
c v 29.60 26 170 0 34 11068 23 132821 19190 3.2 24 8 1 5 24% 1639 82880 13601 49%
c w 29.80 26 170 0 34 11068 23 132821 18729 3.2 24 8 1 5 24% 1639 82880 13601 49%
c t 30.17 26 170 0 34 11068 23 132821 18729 3.2 24 8 1 5 24% 1634 82880 13601 49%
c
c  seconds   switched      rate          size/glue tier1    binary         remaining
c         MB   reductions    conflicts         size  tier2     irredundant
c           level   restarts        redundant    glue   trail         variables
c
c - 30.39 26 173 0 35 11189 22 135896 18728 3.2 24 8 1 5 24% 1665 82880 13601 49%
c - 31.10 26 171 0 36 11698 22 141812 21204 3.2 24 8 1 5 25% 1703 82880 13601 49%
c - 31.79 26 170 0 37 12224 22 147812 23194 3.2 25 8 1 5 25% 1765 82880 13601 49%
c - 32.38 26 170 0 38 12662 22 153894 24610 3.2 25 8 1 5 25% 1800 82880 13601 49%
c s 32.90 26 168 0 38 13045 22 157870 28303 3.2 25 8 1 5 25% 1830 81999 13601 49%
c e 32.99 26 168 0 38 13045 22 157870 28303 3.2 25 8 1 5 25% 1374 94410 11972 43%
c 2 32.99 26 168 0 38 13045 22 157870 28303 3.2 25 8 1 5 25% 1372 94410 11972 43%
c s 33.01 26 168 0 38 13045 22 157870 28303 3.2 25 8 1 5 25% 1389 92434 11972 43%
c e 33.03 26 168 0 38 13045 22 157870 28303 3.2 25 8 1 5 25% 1343 92583 11946 43%
c ^ 33.03 26 168 0 38 13045 22 157870 28303 3.2 25 8 1 5 25% 1343 92583 11946 43%
c - 33.33 28 167 0 39 13253 22 160059 19509 3.2 25 8 1 5 25% 1348 92583 11946 43%
c o 33.37 28 167 0 39 13279 22 160498 19884 3.2 25 8 1 5 25% 1354 92583 11946 43%
c d 33.73 28 164 0 39 13524 21 164804 23774 3.2 25 8 1 5 25% 1347 92583 11936 43%
c u 33.78 28 164 0 39 13524 21 164804 22100 3.2 25 8 1 5 25% 1360 92583 11936 43%
c v 33.84 28 164 0 39 13524 21 164804 19589 3.2 25 8 1 5 25% 1365 92583 11936 43%
c w 33.96 28 164 0 39 13524 21 164804 19559 3.2 25 8 1 5 25% 1365 92583 11936 43%
c x 34.02 28 164 0 39 13524 21 164804 19549 3.2 25 8 1 5 25% 1399 92371 11936 43%
c d 34.03 28 164 0 39 13524 21 164804 19533 3.2 25 8 1 5 25% 1385 92371 11929 43%
c t 34.03 28 164 0 39 13524 21 164804 19533 3.2 25 8 1 5 25% 1336 92371 11929 43%
c c 34.14 28 164 0 39 13524 21 164804 19501 3.2 25 8 1 5 25% 1369 92283 11921 43%
c
c  seconds   switched      rate          size/glue tier1    binary         remaining
c         MB   reductions    conflicts         size  tier2     irredundant
c           level   restarts        redundant    glue   trail         variables
c
c d 34.15 28 164 0 39 13524 21 164804 19495 3.2 25 8 1 5 25% 1353 92283 11921 43%
c u 34.19 28 164 0 39 13524 21 164804 19114 3.2 25 8 1 5 25% 1357 92283 11921 43%
c v 34.23 28 164 0 39 13524 21 164804 18525 3.2 25 8 1 5 25% 1359 92283 11921 43%
c w 34.35 28 164 0 39 13524 21 164804 18068 3.2 25 8 1 5 25% 1359 92283 11921 43%
c x 34.41 28 164 0 39 13524 21 164804 18068 3.2 25 8 1 5 25% 1359 92253 11921 43%
c = 34.81 28 164 0 39 13524 21 164804 18068 3.2 25 8 1 5 25% 1519 92193 11836 43%
c d 34.81 28 164 0 39 13524 21 164804 18049 3.2 25 8 1 5 25% 1357 92193 11836 43%
c t 34.82 28 164 0 39 13524 21 164804 18049 3.2 25 8 1 5 25% 1321 92193 11836 43%
c f 34.83 28 164 0 39 13524 21 164804 18049 3.2 25 8 1 5 25% 1319 92178 11837 43%
c - 34.94 28 163 0 40 13603 21 166303 16916 3.1 25 8 1 5 25% 1326 92177 11837 43%
c - 35.41 28 157 0 41 13907 20 172627 19568 3.1 24 8 1 5 24% 1350 92177 11837 43%
c - 36.08 28 154 0 42 14396 20 179037 21914 3.1 24 8 1 5 25% 1365 92175 11837 43%
c - 36.42 28 149 0 43 14629 19 185517 23262 3.0 23 8 1 5 24% 1387 92171 11837 43%
c - 37.07 29 145 0 44 15107 19 192074 24543 3.0 23 8 1 5 24% 1412 92169 11837 43%
c - 37.72 29 142 0 45 15587 19 198707 25864 3.0 23 8 1 5 24% 1433 92167 11837 43%
c d 37.94 29 142 0 45 15746 19 200586 27648 2.9 23 8 1 5 24% 1422 92167 11830 43%
c u 37.99 29 142 0 45 15746 19 200586 25732 2.9 23 8 1 5 24% 1447 92167 11830 43%
c v 38.06 29 142 0 45 15746 19 200586 22271 2.9 23 8 1 5 24% 1456 92167 11830 43%
c w 38.15 29 142 0 45 15746 19 200586 21846 2.9 23 8 1 5 24% 1456 92167 11830 43%
c d 38.49 29 142 0 45 15746 19 200586 21839 2.9 23 8 1 5 24% 1446 92167 11825 43%
c
c  seconds   switched      rate          size/glue tier1    binary         remaining
c         MB   reductions    conflicts         size  tier2     irredundant
c           level   restarts        redundant    glue   trail         variables
c
c t 38.49 29 142 0 45 15746 19 200586 21839 2.9 23 8 1 5 24% 1426 92167 11825 43%
c u 38.54 29 142 0 45 15746 19 200586 21458 2.9 23 8 1 5 24% 1429 92167 11825 43%
c v 38.59 29 142 0 45 15746 19 200586 20733 2.9 23 8 1 5 24% 1431 92167 11825 43%
c w 38.66 29 142 0 45 15746 19 200586 20536 2.9 23 8 1 5 24% 1431 92167 11825 43%
c x 38.72 29 142 0 45 15746 19 200586 20535 2.9 23 8 1 5 24% 1433 92159 11825 43%
c d 38.72 29 142 0 45 15746 19 200586 20533 2.9 23 8 1 5 24% 1429 92159 11823 43%
c t 38.73 29 142 0 45 15746 19 200586 20533 2.9 23 8 1 5 24% 1425 92159 11823 43%
c - 39.09 29 140 0 46 15927 18 205416 21368 2.9 23 8 1 5 24% 1452 92159 11823 43%
c - 39.51 29 137 0 47 16173 18 212199 23678 2.9 22 8 1 5 24% 1465 92159 11823 43%
c - 39.88 29 133 0 48 16392 17 219054 25584 2.9 22 8 1 5 23% 1497 92158 11823 43%
c o 40.03 29 133 0 48 16512 17 220518 26953 2.9 22 8 1 5 23% 1500 92158 11823 43%
c - 40.44 29 130 0 49 16769 16 225983 27177 2.9 22 8 1 5 23% 1515 92158 11823 43%
c - 40.95 29 127 0 50 17103 16 232986 28447 2.8 22 8 1 4 23% 1532 92156 11823 43%
c s 41.50 29 124 0 50 17558 16 239980 34891 2.8 22 8 1 4 23% 1560 91517 11823 43%
c e 41.61 29 124 0 50 17558 16 239980 34891 2.8 22 8 1 4 23% 1152 102119 10998 40%
c s 41.63 29 124 0 50 17558 16 239980 34891 2.8 22 8 1 4 23% 1165 99179 10998 40%
c e 41.66 29 124 0 50 17558 16 239980 34891 2.8 22 8 1 4 23% 1142 99538 10972 40%
c ! 41.66 29 124 0 50 17558 16 239980 34891 2.8 22 8 1 4 23% 1142 99538 10972 40%
c - 41.67 29 124 0 51 17559 16 240057 23336 2.8 22 8 1 4 23% 1143 99538 10972 40%
c c 41.71 29 124 0 51 17567 16 240244 23505 2.8 22 8 1 4 23% 1165 99404 10962 39%
c
c  seconds   switched      rate          size/glue tier1    binary         remaining
c         MB   reductions    conflicts         size  tier2     irredundant
c           level   restarts        redundant    glue   trail         variables
c
c d 41.71 29 124 0 51 17567 16 240244 23481 2.8 22 8 1 4 23% 1145 99404 10962 39%
c u 41.76 29 124 0 51 17567 16 240244 21571 2.8 22 8 1 4 23% 1154 99404 10962 39%
c v 41.80 29 124 0 51 17567 16 240244 19410 2.8 22 8 1 4 23% 1158 99404 10962 39%
c w 41.83 29 124 0 51 17567 16 240244 18929 2.8 22 8 1 4 23% 1158 99404 10962 39%
c = 42.18 29 124 0 51 17567 16 240244 18929 2.8 22 8 1 4 23% 1160 99404 10961 39%
c d 42.18 29 124 0 51 17567 16 240244 18929 2.8 22 8 1 4 23% 1158 99404 10961 39%
c t 42.19 29 124 0 51 17567 16 240244 18929 2.8 22 8 1 4 23% 1142 99404 10961 39%
c f 42.26 29 124 0 51 17567 16 240244 18929 2.8 22 8 1 4 23% 1155 99265 10968 40%
c u 42.31 29 124 0 51 17567 16 240244 18684 2.8 22 8 1 4 23% 1157 99265 10968 40%
c v 42.34 29 124 0 51 17567 16 240244 18264 2.8 22 8 1 4 23% 1157 99265 10968 40%
c w 42.36 29 124 0 51 17567 16 240244 18074 2.8 22 8 1 4 23% 1157 99265 10968 40%
c = 42.69 29 124 0 51 17567 16 240244 18074 2.8 22 8 1 4 23% 1335 98442 10829 39%
c d 42.69 29 124 0 51 17567 16 240244 17585 2.8 22 8 1 4 23% 1171 98392 10829 39%
c d 42.69 29 124 0 51 17567 16 240244 17512 2.8 22 8 1 4 23% 1244 97895 10825 39%
c t 42.70 29 124 0 51 17567 16 240244 17512 2.8 22 8 1 4 23% 1205 97895 10786 39%
c i 42.74 29 124 0 51 17581 16 240595 17802 2.8 22 8 1 4 23% 1210 97893 10784 39%
c i 42.74 29 124 0 51 17581 16 240604 17805 2.8 22 8 1 4 23% 1214 97893 10776 39%
c i 42.74 29 124 0 51 17581 16 240610 17807 2.8 22 8 1 4 23% 1215 97893 10775 39%
c i 42.74 29 124 0 51 17581 16 240611 17807 2.8 22 8 1 4 23% 1215 97893 10774 39%
c i 42.74 29 124 0 51 17581 16 240612 17807 2.8 22 8 1 4 23% 1215 97893 10773 39%
c
c  seconds   switched      rate          size/glue tier1    binary         remaining
c         MB   reductions    conflicts         size  tier2     irredundant
c           level   restarts        redundant    glue   trail         variables
c
c } 42.74 29 124 0 51 17581 16 240614 17807 2.8 22 8 1 4 23% 1215 97893 10770 39%
c 0 42.74 29 124 0 51 17581 16 240614 17807 2.8 22 8 1 4 23% 1215 97893 10770 39%
c
c ---- [ result ] ------------------------------------------------------------
c
s UNSATISFIABLE
c
c ---- [ profiling ] ---------------------------------------------------------
c
c          30.67   71.78 %  search
c          30.67   71.78 %  focused
c          11.46   26.82 %  simplify
c          10.86   25.41 %  probe
c           4.36   10.20 %  sweep
c           4.11    9.61 %  vivify
c           0.90    2.09 %  eliminate
c           0.89    2.08 %  factor
c           0.72    1.67 %  congruence
c           0.62    1.44 %  substitute
c           0.55    1.28 %  preprocess
c           0.25    0.59 %  reduce
c           0.25    0.57 %  fastel
c           0.15    0.34 %  subsume
c           0.11    0.25 %  transitive
c           0.07    0.16 %  backbone
c           0.03    0.08 %  lucky
c           0.02    0.05 %  parse
c =============================================
c          42.74  100.00 %  total
c
c ---- [ statistics ] --------------------------------------------------------
c
c chronological:                         7272                3 %  conflicts
c conflicts:                           240614             5630.18 per second
c congruent:                              527                2 %  variables
c decisions:                          4408604               18.32 per conflict
c eliminated:                           13918               50 %  variables
c factored:                              3787               14 %  variables
c fast_eliminated:                       9870               71 %  eliminated
c fast_strengthened:                        1                0 %  per strengthened
c fast_subsumed:                          275                1 %  per subsumed
c iterations:                               6                0 %  variables
c propagations:                     173294893          4054964    per second
c reductions:                              51             4718    interval
c reordered:                                7            34373    interval
c restarts:                             17581               14    interval
c strengthened:                          8349                0 %  checks
c substituted:                           6739               24 %  variables
c subsumed:                             39721                1 %  checks
c switched:                                 0                0    interval
c vivified:                             77296               13 %  checks
c
c ---- [ glue usage ] --------------------------------------------------------
c
c focused glue 1 used 577804 clauses 63.99% accumulated 63.99% tier1
c focused glue 2 used 154433 clauses 17.10% accumulated 81.09%
c focused glue 3 used  52451 clauses  5.81% accumulated 86.90%
c focused glue 4 used  29647 clauses  3.28% accumulated 90.19% tier2
c
c ---- [ resources ] ---------------------------------------------------------
c
c maximum-resident-set-size:         30113792 bytes         29 MB
c process-time:                            43s              42.74 seconds
c
c ---- [ shutting down ] -----------------------------------------------------
c
c exit 20
